Solver command line: ['/home/ffm2000/opt/cplex/cplex/bin/x86-64_linux/cplex']


Welcome to IBM(R) ILOG(R) CPLEX(R) Interactive Optimizer 22.1.1.0
  with Simplex, Mixed Integer & Barrier Optimizers
5725-A06 5725-A29 5724-Y48 5724-Y49 5724-Y54 5724-Y55 5655-Y21
Copyright IBM Corp. 1988, 2022.  All Rights Reserved.

Type 'help' for a list of available commands.
Type 'help' followed by a command name for more
information on commands.

CPLEX> Logfile 'cplex.log' closed.
Logfile 'solver_log_UK_Technology16.log' open.
CPLEX> New value for mixed integer optimality gap tolerance: 0.0002
CPLEX> New value for time limit in seconds: 28000
CPLEX> New value for integrality tolerance: 0
CPLEX> New value for feasibility tolerance: 1e-08
CPLEX> Problem '/tmp/221798.1.RCCS/tmpso9ekbx5.pyomo.lp' read.
Read time = 0.43 sec. (33.57 ticks)
CPLEX> Problem name         : /tmp/221798.1.RCCS/tmpso9ekbx5.pyomo.lp
Objective sense      : Minimize
Variables            :  180315  [Nneg: 1,  Box: 180192,  Binary: 84,
                                 General Integer: 38]
Objective nonzeros   :       2
Linear constraints   :  404014  [Less: 200071,  Greater: 18540,  Equal: 185403]
  Nonzeros           :  665257
  RHS nonzeros       :   18552

Variables            : Min LB: 0.000000         Max UB: 1.000000e+10   
Objective nonzeros   : Min   : 0.1187400        Max   : 1.000000       
Linear constraints   :
  Nonzeros           : Min   : 0.02000000       Max   : 505146.4       
  RHS nonzeros       : Min   : 1.000000         Max   : 8.710684e+08   
CPLEX> Version identifier: 22.1.1.0 | 2022-11-28 | 9160aff4d
CPXPARAM_Simplex_Tolerances_Feasibility          1e-08
CPXPARAM_TimeLimit                               28000
CPXPARAM_MIP_Tolerances_MIPGap                   0.00020000000000000001
CPXPARAM_MIP_Tolerances_Integrality              0
Tried aggregator 4 times.
MIP Presolve eliminated 403833 rows and 180117 columns.
MIP Presolve modified 96 coefficients.
Aggregator did 153 substitutions.
Reduced MIP has 28 rows, 45 columns, and 159 nonzeros.
Reduced MIP has 35 binaries, 2 generals, 0 SOSs, and 0 indicators.
Presolve time = 0.28 sec. (359.47 ticks)
Found incumbent of value 1179845.925569 after 0.30 sec. (382.55 ticks)
Probing fixed 0 vars, tightened 6 bounds.
Probing time = 0.00 sec. (0.06 ticks)
Tried aggregator 1 time.
Detecting symmetries...
Reduced MIP has 28 rows, 45 columns, and 159 nonzeros.
Reduced MIP has 35 binaries, 2 generals, 0 SOSs, and 0 indicators.
Presolve time = 0.00 sec. (0.12 ticks)
Probing time = 0.00 sec. (0.04 ticks)
Clique table members: 62.
MIP emphasis: balance optimality and feasibility.
MIP search method: dynamic search.
Parallel mode: deterministic, using up to 32 threads.
Root relaxation solution time = 0.00 sec. (0.09 ticks)

        Nodes                                         Cuts/
   Node  Left     Objective  IInf  Best Integer    Best Bound    ItCnt     Gap

*     0+    0                      1179845.9256    15495.2371            98.69%
      0     0   399880.7274    16  1179845.9256   399880.7274       24   66.11%
*     0+    0                       436044.6500   399880.7274             8.29%
      0     0   429840.5079    13   436044.6500      Cuts: 18       51    0.88%
      0     0   431248.9061    20   436044.6500       Cuts: 9       59    0.88%
      0     0   431515.0425    19   436044.6500       Cuts: 5       69    0.88%
      0     0   431631.2985    20   436044.6500       Cuts: 5       74    0.88%
      0     0   432290.3190    24   436044.6500       Cuts: 5       83    0.86%
Detecting symmetries...
      0     0   432563.9615    22   436044.6500    MIRcuts: 5       87    0.80%
      0     0   432808.5858    21   436044.6500       Cuts: 3       91    0.74%
      0     0   432939.3016    23   436044.6500       Cuts: 4       96    0.71%
      0     0   433026.9583    21   436044.6500       Cuts: 2      101    0.69%
      0     0   433034.6405    22   436044.6500       Cuts: 4      104    0.69%
      0     0   433046.8394    21   436044.6500    MIRcuts: 1      106    0.69%
Detecting symmetries...
      0     2   433046.8394    21   436044.6500   433046.8394      106    0.69%
Elapsed time = 0.70 sec. (413.41 ticks, tree = 0.02 MB, solutions = 2)
*    43+    8                       435605.4446   434380.8432             0.28%

Clique cuts applied:  1
Cover cuts applied:  12
Flow cuts applied:  1
Mixed integer rounding cuts applied:  10
Zero-half cuts applied:  1
Gomory fractional cuts applied:  2

Root node processing (before b&c):
  Real time             =    0.52 sec. (419.18 ticks)
Parallel b&c, 32 threads:
  Real time             =    0.34 sec. (60.48 ticks)
  Sync time (average)   =    0.09 sec.
  Wait time (average)   =    0.00 sec.
                          ------------
Total (root+branch&cut) =    0.85 sec. (479.67 ticks)

Solution pool: 3 solutions saved.

MIP - Integer optimal solution:  Objective =  4.3560544460e+05
Solution time =    0.87 sec.  Iterations = 287  Nodes = 50
Deterministic time = 480.18 ticks  (553.73 ticks/sec)

CPLEX> Incumbent solution written to file '/tmp/221798.1.RCCS/tmpegkmp3gb.cplex.sol'.
CPLEX> 
